 vasp.5.4.4.18Apr17-6-g9f103f2a35 (build May 02 2017 21:33:38) complex

 executed on             LinuxIFC date 2019.02.02  15:06:51

 INCAR:
 POTCAR:    PAW_PBE Fe 06Sep2000
 POTCAR:    PAW_PBE Nb_pv 08Apr2002
 POTCAR:    PAW_PBE Sb 06Sep2000

 POTCAR:    PAW_PBE Fe 06Sep2000
   VRHFIN =Fe:  d7 s1

   TITEL  = PAW_PBE Fe 06Sep2000
   POMASS =   55.847; ZVAL   =    8.000    mass and valenz
   ENMAX  =  267.882; ENMIN  =  200.911 eV

 POTCAR:    PAW_PBE Nb_pv 08Apr2002
   VRHFIN =Nb: 4p5s4d

   TITEL  = PAW_PBE Nb_pv 08Apr2002
   POMASS =   92.000; ZVAL   =   11.000    mass and valenz
   ENMAX  =  208.608; ENMIN  =  156.456 eV

 POTCAR:    PAW_PBE Sb 06Sep2000
   VRHFIN =Sb: s2p3

   TITEL  = PAW_PBE Sb 06Sep2000
   POMASS =  121.750; ZVAL   =    5.000    mass and valenz
   ENMAX  =  172.069; ENMIN  =  129.052 eV

  PAW_PBE Fe 06Sep2000                  :
  PAW_PBE Nb_pv 08Apr2002               :
  PAW_PBE Sb 06Sep2000                  :

 POSCAR: Fe1 Nb1 Sb1
  positions in direct lattice
  velocities in cartesian coordinates
 exchange correlation table for  LEXCH =        8
   RHO(1)=    0.500       N(1)  =     2000
   RHO(2)=  100.500       N(2)  =     4000

 ion  position               nearest neighbor table
   1  0.750  0.750  0.750-   3 2.56   3 2.56   3 2.56   2 2.56   3 2.56   2 2.56   2 2.56   2 2.56

   2  0.000  0.000  0.000-   1 2.56   1 2.56   1 2.56   1 2.56   3 2.96   3 2.96   3 2.96   3 2.96
                             3 2.96   3 2.96
   3  0.500  0.500  0.500-   1 2.56   1 2.56   1 2.56   1 2.56   2 2.96   2 2.96   2 2.96   2 2.96
                             2 2.96   2 2.96

  LATTYP: Found a face centered cubic cell.
 ALAT       =     5.9129752745

  Lattice vectors:

 A1 = (   0.0000000000,   2.9564876373,   2.9564876373)
 A2 = (   2.9564876373,   0.0000000000,   2.9564876373)
 A3 = (   2.9564876373,   2.9564876373,   0.0000000000)

Analysis of symmetry for initial positions (statically):
 Subroutine PRICEL returns:
 Original cell was already a primitive cell.

 Routine SETGRP: Setting up the symmetry group for a
 face centered cubic supercell.

 Subroutine GETGRP returns: Found 24 space group operations
 (whereof 24 operations were pure point group operations)
 out of a pool of 48 trial point group operations.

The static configuration has the point symmetry T_d .

Analysis of symmetry for dynamics (positions and initial velocities):
 Subroutine PRICEL returns:
 Original cell was already a primitive cell.

 Routine SETGRP: Setting up the symmetry group for a
 face centered cubic supercell.

 Subroutine GETGRP returns: Found 24 space group operations
 (whereof 24 operations were pure point group operations)
 out of a pool of 48 trial point group operations.

The dynamic configuration has the point symmetry T_d .

 Subroutine INISYM returns: Found 24 space group operations
 (whereof 24 operations are pure point group operations),
 and found     1 'primitive' translations

 KPOINTS: KPOINTS

Automatic generation of k-mesh.
Space group operators:
 irot       det(A)        alpha          n_x          n_y          n_z        tau_x        tau_y        tau_z
    1     1.000000     0.000001     1.000000     0.000000     0.000000     0.000000     0.000000     0.000000
    2     1.000000   120.000000    -0.577350    -0.577350    -0.577350     0.000000     0.000000     0.000000
    3     1.000000   120.000000     0.577350     0.577350     0.577350     0.000000     0.000000     0.000000
    4    -1.000000    90.000000     0.000000     0.000000    -1.000000     0.000000     0.000000     0.000000
    5    -1.000000   180.000000     0.000000     0.707107     0.707107     0.000000     0.000000     0.000000
    6    -1.000000    90.000000     0.000000     1.000000     0.000000     0.000000     0.000000     0.000000
    7     1.000000   180.000000     0.000000     0.000000     1.000000     0.000000     0.000000     0.000000
    8     1.000000   120.000000    -0.577350     0.577350     0.577350     0.000000     0.000000     0.000000
    9     1.000000   120.000000    -0.577350     0.577350    -0.577350     0.000000     0.000000     0.000000
   10    -1.000000    90.000000     0.000000     0.000000     1.000000     0.000000     0.000000     0.000000
   11    -1.000000    90.000000    -1.000000     0.000000     0.000000     0.000000     0.000000     0.000000
   12    -1.000000   180.000000     0.707107     0.000000     0.707107     0.000000     0.000000     0.000000
   13     1.000000   120.000000     0.577350    -0.577350     0.577350     0.000000     0.000000     0.000000
   14     1.000000   120.000000    -0.577350    -0.577350     0.577350     0.000000     0.000000     0.000000
   15     1.000000   180.000000     1.000000     0.000000     0.000000     0.000000     0.000000     0.000000
   16    -1.000000    90.000000     0.000000    -1.000000     0.000000     0.000000     0.000000     0.000000
   17    -1.000000   180.000000     0.707107     0.707107     0.000000     0.000000     0.000000     0.000000
   18    -1.000000    90.000000     1.000000     0.000000     0.000000     0.000000     0.000000     0.000000
   19     1.000000   120.000000     0.577350    -0.577350    -0.577350     0.000000     0.000000     0.000000
   20     1.000000   180.000000     0.000000     1.000000     0.000000     0.000000     0.000000     0.000000
   21     1.000000   120.000000     0.577350     0.577350    -0.577350     0.000000     0.000000     0.000000
   22    -1.000000   180.000000     0.000000    -0.707107     0.707107     0.000000     0.000000     0.000000
   23    -1.000000   180.000000     0.707107    -0.707107     0.000000     0.000000     0.000000     0.000000
   24    -1.000000   180.000000     0.707107     0.000000    -0.707107     0.000000     0.000000     0.000000

 Subroutine IBZKPT returns following result:

 Found   2168 irreducible k-points:

 Following reciprocal coordinates:
            Coordinates               Weight
  0.000000  0.000000  0.000000      1.000000
  0.022727  0.000000  0.000000      8.000000
  0.045455  0.000000  0.000000      8.000000
  0.068182  0.000000  0.000000      8.000000
  0.090909  0.000000  0.000000      8.000000
  0.113636  0.000000  0.000000      8.000000
  0.136364  0.000000  0.000000      8.000000
  0.159091  0.000000  0.000000      8.000000
  0.181818  0.000000  0.000000      8.000000
  0.204545  0.000000  0.000000      8.000000
  0.227273  0.000000  0.000000      8.000000
  0.250000  0.000000  0.000000      8.000000
  0.272727  0.000000  0.000000      8.000000
  0.295455  0.000000  0.000000      8.000000
  0.318182  0.000000  0.000000      8.000000
  0.340909  0.000000  0.000000      8.000000
  0.363636  0.000000  0.000000      8.000000
  0.386364  0.000000  0.000000      8.000000
  0.409091  0.000000  0.000000      8.000000
  0.431818  0.000000  0.000000      8.000000
  0.454545  0.000000  0.000000      8.000000
  0.477273  0.000000  0.000000      8.000000
  0.500000  0.000000  0.000000      4.000000
  0.022727  0.022727  0.000000      6.000000
  0.045455  0.022727  0.000000     24.000000
  0.068182  0.022727  0.000000     24.000000
  0.090909  0.022727  0.000000     24.000000
  0.113636  0.022727  0.000000     24.000000
  0.136364  0.022727  0.000000     24.000000
  0.159091  0.022727  0.000000     24.000000
  0.181818  0.022727  0.000000     24.000000
  0.204545  0.022727  0.000000     24.000000
  0.227273  0.022727  0.000000     24.000000
  0.250000  0.022727  0.000000     24.000000
  0.272727  0.022727  0.000000     24.000000
  0.295455  0.022727  0.000000     24.000000
  0.318182  0.022727  0.000000     24.000000
  0.340909  0.022727  0.000000     24.000000
  0.363636  0.022727  0.000000     24.000000
  0.386364  0.022727  0.000000     24.000000
  0.409091  0.022727  0.000000     24.000000
  0.431818  0.022727  0.000000     24.000000
  0.454545  0.022727  0.000000     24.000000
  0.477273  0.022727  0.000000     24.000000
  0.500000  0.022727  0.000000     24.000000
 -0.477273  0.022727  0.000000     24.000000
 -0.454545  0.022727  0.000000     24.000000
 -0.431818  0.022727  0.000000     24.000000
 -0.409091  0.022727  0.000000     24.000000
 -0.386364  0.022727  0.000000     24.000000
 -0.363636  0.022727  0.000000     24.000000
 -0.340909  0.022727  0.000000     24.000000
 -0.318182  0.022727  0.000000     24.000000
 -0.295455  0.022727  0.000000     24.000000
 -0.272727  0.022727  0.000000     24.000000
 -0.250000  0.022727  0.000000     24.000000
 -0.227273  0.022727  0.000000     24.000000
 -0.204545  0.022727  0.000000     24.000000
 -0.181818  0.022727  0.000000     24.000000
 -0.159091  0.022727  0.000000     24.000000
[...]
 -0.295455  0.454545  0.204545     48.000000
 -0.272727  0.454545  0.204545     48.000000
 -0.250000  0.454545  0.204545     24.000000
 -0.318182  0.477273  0.204545     24.000000
 -0.295455  0.477273  0.204545     48.000000
 -0.272727  0.477273  0.204545     24.000000
 -0.295455  0.500000  0.204545     12.000000
 -0.318182  0.454545  0.227273     24.000000
 -0.295455  0.454545  0.227273     48.000000
 -0.272727  0.454545  0.227273     24.000000
 -0.295455  0.477273  0.227273     24.000000
 -0.272727  0.477273  0.227273     48.000000
 -0.250000  0.477273  0.227273     24.000000
 -0.272727  0.500000  0.227273     12.000000
 -0.250000  0.500000  0.250000      6.000000

 Following cartesian coordinates:
            Coordinates               Weight
  0.000000  0.000000  0.000000      1.000000
 -0.003844  0.003844  0.003844      8.000000
 -0.007687  0.007687  0.007687      8.000000
 -0.011531  0.011531  0.011531      8.000000
 -0.015375  0.015375  0.015375      8.000000
 -0.019218  0.019218  0.019218      8.000000
 -0.023062  0.023062  0.023062      8.000000
 -0.026905  0.026905  0.026905      8.000000
 -0.030749  0.030749  0.030749      8.000000
 -0.034593  0.034593  0.034593      8.000000
 -0.038436  0.038436  0.038436      8.000000
 -0.042280  0.042280  0.042280      8.000000
 -0.046124  0.046124  0.046124      8.000000
 -0.049967  0.049967  0.049967      8.000000
 -0.053811  0.053811  0.053811      8.000000
 -0.057654  0.057654  0.057654      8.000000
 -0.061498  0.061498  0.061498      8.000000
 -0.065342  0.065342  0.065342      8.000000
 -0.069185  0.069185  0.069185      8.000000
 -0.073029  0.073029  0.073029      8.000000
 -0.076873  0.076873  0.076873      8.000000
 -0.080716  0.080716  0.080716      8.000000
 -0.084560  0.084560  0.084560      4.000000
  0.000000  0.000000  0.007687      6.000000
 -0.003844  0.003844  0.011531     24.000000
 -0.007687  0.007687  0.015375     24.000000
 -0.011531  0.011531  0.019218     24.000000
 -0.015375  0.015375  0.023062     24.000000
 -0.019218  0.019218  0.026905     24.000000
 -0.023062  0.023062  0.030749     24.000000
 -0.026905  0.026905  0.034593     24.000000
 -0.030749  0.030749  0.038436     24.000000
 -0.034593  0.034593  0.042280     24.000000
 -0.038436  0.038436  0.046124     24.000000
 -0.042280  0.042280  0.049967     24.000000
 -0.046124  0.046124  0.053811     24.000000
 -0.049967  0.049967  0.057654     24.000000
 -0.053811  0.053811  0.061498     24.000000
 -0.057654  0.057654  0.065342     24.000000
 -0.061498  0.061498  0.069185     24.000000
[...]
 k-point  7 :   0.1364 0.0000 0.0000  plane waves:    1399
 k-point  8 :   0.1591 0.0000 0.0000  plane waves:    1399
 k-point  9 :   0.1818 0.0000 0.0000  plane waves:    1387
 k-point 10 :   0.2045 0.0000 0.0000  plane waves:    1387
 k-point 11 :   0.2273 0.0000 0.0000  plane waves:    1387
 k-point 12 :   0.2500 0.0000 0.0000  plane waves:    1390
 k-point 13 :   0.2727 0.0000 0.0000  plane waves:    1387
 k-point 14 :   0.2955 0.0000 0.0000  plane waves:    1387
 k-point 15 :   0.3182 0.0000 0.0000  plane waves:    1399
 k-point 16 :   0.3409 0.0000 0.0000  plane waves:    1399
 k-point 17 :   0.3636 0.0000 0.0000  plane waves:    1410
 k-point 18 :   0.3864 0.0000 0.0000  plane waves:    1398
 k-point 19 :   0.4091 0.0000 0.0000  plane waves:    1398
 k-point 20 :   0.4318 0.0000 0.0000  plane waves:    1401
 k-point 21 :   0.4545 0.0000 0.0000  plane waves:    1392
 k-point 22 :   0.4773 0.0000 0.0000  plane waves:    1392
 k-point 23 :   0.5000 0.0000 0.0000  plane waves:    1404
 k-point 24 :   0.0227 0.0227 0.0000  plane waves:    1403
 k-point 25 :   0.0455 0.0227 0.0000  plane waves:    1397
 k-point 26 :   0.0682 0.0227 0.0000  plane waves:    1397
 k-point 27 :   0.0909 0.0227 0.0000  plane waves:    1400
 k-point 28 :   0.1136 0.0227 0.0000  plane waves:    1402
 k-point 29 :   0.1364 0.0227 0.0000  plane waves:    1406
 k-point 30 :   0.1591 0.0227 0.0000  plane waves:    1400
 k-point 31 :   0.1818 0.0227 0.0000  plane waves:    1393
 k-point 32 :   0.2045 0.0227 0.0000  plane waves:    1391
 k-point 33 :   0.2273 0.0227 0.0000  plane waves:    1389
 k-point 34 :   0.2500 0.0227 0.0000  plane waves:    1387
 k-point 35 :   0.2727 0.0227 0.0000  plane waves:    1386
 k-point 36 :   0.2955 0.0227 0.0000  plane waves:    1385
 k-point 37 :   0.3182 0.0227 0.0000  plane waves:    1390
 k-point 38 :   0.3409 0.0227 0.0000  plane waves:    1397
 k-point 39 :   0.3636 0.0227 0.0000  plane waves:    1398
 k-point 40 :   0.3864 0.0227 0.0000  plane waves:    1402
 k-point 41 :   0.4091 0.0227 0.0000  plane waves:    1400
 k-point 42 :   0.4318 0.0227 0.0000  plane waves:    1399
 k-point 43 :   0.4545 0.0227 0.0000  plane waves:    1394
 k-point 44 :   0.4773 0.0227 0.0000  plane waves:    1392
 k-point 45 :   0.5000 0.0227 0.0000  plane waves:    1394
 k-point 46 :  -0.4773 0.0227 0.0000  plane waves:    1394
 k-point 47 :  -0.4545 0.0227 0.0000  plane waves:    1392
 k-point 48 :  -0.4318 0.0227 0.0000  plane waves:    1397
 k-point 49 :  -0.4091 0.0227 0.0000  plane waves:    1401
 k-point 50 :  -0.3864 0.0227 0.0000  plane waves:    1403
 k-point 51 :  -0.3636 0.0227 0.0000  plane waves:    1402
 k-point 52 :  -0.3409 0.0227 0.0000  plane waves:    1398
 k-point 53 :  -0.3182 0.0227 0.0000  plane waves:    1396
 k-point 54 :  -0.2955 0.0227 0.0000  plane waves:    1389
 k-point 55 :  -0.2727 0.0227 0.0000  plane waves:    1385
 k-point 56 :  -0.2500 0.0227 0.0000  plane waves:    1384
 k-point 57 :  -0.2273 0.0227 0.0000  plane waves:    1386
 k-point 58 :  -0.2045 0.0227 0.0000  plane waves:    1388
 k-point 59 :  -0.1818 0.0227 0.0000  plane waves:    1391
 k-point 60 :  -0.1591 0.0227 0.0000  plane waves:    1399
[...]
 k-point 85 :   0.4545 0.0455 0.0000  plane waves:    1401
 k-point 86 :   0.4773 0.0455 0.0000  plane waves:    1397
 k-point 87 :   0.5000 0.0455 0.0000  plane waves:    1394
 k-point 88 :  -0.4773 0.0455 0.0000  plane waves:    1392
 k-point 89 :  -0.4545 0.0455 0.0000  plane waves:    1397
 k-point 90 :  -0.4318 0.0455 0.0000  plane waves:    1397
 k-point 91 :  -0.4091 0.0455 0.0000  plane waves:    1399
 k-point 92 :  -0.3864 0.0455 0.0000  plane waves:    1403
 k-point 93 :  -0.3636 0.0455 0.0000  plane waves:    1403
 k-point 94 :  -0.3409 0.0455 0.0000  plane waves:    1396
 k-point 95 :  -0.3182 0.0455 0.0000  plane waves:    1394
 k-point 96 :  -0.2955 0.0455 0.0000  plane waves:    1384
 k-point 97 :  -0.2727 0.0455 0.0000  plane waves:    1385
 k-point 98 :  -0.2500 0.0455 0.0000  plane waves:    1388
 k-point 99 :  -0.2273 0.0455 0.0000  plane waves:    1388
 k-point ** :  -0.2045 0.0455 0.0000  plane waves:    1388
 k-point ** :  -0.1818 0.0455 0.0000  plane waves:    1391
 k-point ** :  -0.1591 0.0455 0.0000  plane waves:    1392
 k-point ** :  -0.1364 0.0455 0.0000  plane waves:    1396
 k-point ** :  -0.1136 0.0455 0.0000  plane waves:    1403
 k-point ** :  -0.0909 0.0455 0.0000  plane waves:    1405
 k-point ** :  -0.0682 0.0455 0.0000  plane waves:    1403
 k-point ** :  -0.0455 0.0455 0.0000  plane waves:    1401
 k-point ** :   0.0682 0.0682 0.0000  plane waves:    1399
 k-point ** :   0.0909 0.0682 0.0000  plane waves:    1402
 k-point ** :   0.1136 0.0682 0.0000  plane waves:    1406
 k-point ** :   0.1364 0.0682 0.0000  plane waves:    1404
 k-point ** :   0.1591 0.0682 0.0000  plane waves:    1404
 k-point ** :   0.1818 0.0682 0.0000  plane waves:    1402
 k-point ** :   0.2045 0.0682 0.0000  plane waves:    1394
 k-point ** :   0.2273 0.0682 0.0000  plane waves:    1392
 k-point ** :   0.2500 0.0682 0.0000  plane waves:    1386
 k-point ** :   0.2727 0.0682 0.0000  plane waves:    1384
 k-point ** :   0.2955 0.0682 0.0000  plane waves:    1382
 k-point ** :   0.3182 0.0682 0.0000  plane waves:    1390
 k-point ** :   0.3409 0.0682 0.0000  plane waves:    1394
 k-point ** :   0.3636 0.0682 0.0000  plane waves:    1394
 k-point ** :   0.3864 0.0682 0.0000  plane waves:    1396
 k-point ** :   0.4091 0.0682 0.0000  plane waves:    1397
 k-point ** :   0.4318 0.0682 0.0000  plane waves:    1396
 k-point ** :   0.4545 0.0682 0.0000  plane waves:    1399
 k-point ** :   0.4773 0.0682 0.0000  plane waves:    1399
 k-point ** :   0.5000 0.0682 0.0000  plane waves:    1397
 k-point ** :  -0.4773 0.0682 0.0000  plane waves:    1396
 k-point ** :  -0.4545 0.0682 0.0000  plane waves:    1395
 k-point ** :  -0.4318 0.0682 0.0000  plane waves:    1399
 k-point ** :  -0.4091 0.0682 0.0000  plane waves:    1399
 k-point ** :  -0.3864 0.0682 0.0000  plane waves:    1397
 k-point ** :  -0.3636 0.0682 0.0000  plane waves:    1400
 k-point ** :  -0.3409 0.0682 0.0000  plane waves:    1397
 k-point ** :  -0.3182 0.0682 0.0000  plane waves:    1396
 k-point ** :  -0.2955 0.0682 0.0000  plane waves:    1392
 k-point ** :  -0.2727 0.0682 0.0000  plane waves:    1386
 k-point ** :  -0.2500 0.0682 0.0000  plane waves:    1386
 k-point ** :  -0.2273 0.0682 0.0000  plane waves:    1385
 k-point ** :  -0.2045 0.0682 0.0000  plane waves:    1385
 k-point ** :  -0.1818 0.0682 0.0000  plane waves:    1389
 k-point ** :  -0.1591 0.0682 0.0000  plane waves:    1385
 k-point ** :  -0.1364 0.0682 0.0000  plane waves:    1392
 k-point ** :  -0.1136 0.0682 0.0000  plane waves:    1397
 k-point ** :  -0.0909 0.0682 0.0000  plane waves:    1403
 k-point ** :  -0.0682 0.0682 0.0000  plane waves:    1405
 k-point ** :   0.0909 0.0909 0.0000  plane waves:    1407
 k-point ** :   0.1136 0.0909 0.0000  plane waves:    1404
 k-point ** :   0.1364 0.0909 0.0000  plane waves:    1404
 k-point ** :   0.1591 0.0909 0.0000  plane waves:    1400
 k-point ** :   0.1818 0.0909 0.0000  plane waves:    1402
 k-point ** :   0.2045 0.0909 0.0000  plane waves:    1394
 k-point ** :   0.2273 0.0909 0.0000  plane waves:    1392
 k-point ** :   0.2500 0.0909 0.0000  plane waves:    1388
 k-point ** :   0.2727 0.0909 0.0000  plane waves:    1380
 k-point ** :   0.2955 0.0909 0.0000  plane waves:    1381
 k-point ** :   0.3182 0.0909 0.0000  plane waves:    1388
 k-point ** :   0.3409 0.0909 0.0000  plane waves:    1398
 k-point ** :   0.3636 0.0909 0.0000  plane waves:    1396
[...]
 k-point ** :  -0.2955 0.4545 0.2045  plane waves:    1398
 k-point ** :  -0.2727 0.4545 0.2045  plane waves:    1401
 k-point ** :  -0.2500 0.4545 0.2045  plane waves:    1396
 k-point ** :  -0.3182 0.4773 0.2045  plane waves:    1397
 k-point ** :  -0.2955 0.4773 0.2045  plane waves:    1400
 k-point ** :  -0.2727 0.4773 0.2045  plane waves:    1399
 k-point ** :  -0.2955 0.5000 0.2045  plane waves:    1396
 k-point ** :  -0.3182 0.4545 0.2273  plane waves:    1392
 k-point ** :  -0.2955 0.4545 0.2273  plane waves:    1400
 k-point ** :  -0.2727 0.4545 0.2273  plane waves:    1402
 k-point ** :  -0.2955 0.4773 0.2273  plane waves:    1396
 k-point ** :  -0.2727 0.4773 0.2273  plane waves:    1396
 k-point ** :  -0.2500 0.4773 0.2273  plane waves:    1394
 k-point ** :  -0.2727 0.5000 0.2273  plane waves:    1398
 k-point ** :  -0.2500 0.5000 0.2500  plane waves:    1384

 maximum and minimum number of plane-waves per node :        65       51

 maximum number of plane-waves:      1411
 maximum index in each direction:
   IXMAX=    8   IYMAX=    7   IZMAX=    7
   IXMIN=   -8   IYMIN=   -8   IZMIN=   -7

 parallel 3D FFT for wavefunctions:
    minimum data exchange during FFTs selected (reduces bandwidth)
 parallel 3D FFT for charge:
    minimum data exchange during FFTs selected (reduces bandwidth)

 Broyden mixing: mesh for mixing (old mesh)
   NGX = 15   NGY = 15   NGZ = 15
  (NGX  = 64   NGY  = 64   NGZ  = 64)
  gives a total of   3375 points

 initial charge density was supplied:
 charge density of overlapping atoms calculated
 number of electron      24.0000000 magnetization
 keeping initial charge density in first step

 Maximum index for augmentation-charges        15974 (set IRDMAX)

 First call to EWALD:  gamma=   0.476
 Maximum number of real-space cells 3x 3x 3
 Maximum number of reciprocal cells 3x 3x 3

--------------------------------------- Iteration      1(   1)  ---------------------------------------

 eigenvalue-minimisations  : 79240
 total energy-change (2. order) : 0.1836319E+03  (-0.1120260E+04)
 number of electron      24.0000000 magnetization
 augmentation part       24.0000000 magnetization

 Free energy of the ion-electron system (eV)
  alpha Z        PSCENC =       130.13584951
  Ewald energy   TEWEN  =     -1568.30883671
  -Hartree energ DENC   =      -379.01329918
  -exchange      EXHF   =         0.00000000
  -V(xc)+E(xc)   XCENC  =       -15.02476705
  PAW double counting   =      1554.21320800    -1492.00501930
  entropy T*S    EENTRO =        -0.00288230
  eigenvalues    EBANDS =       165.98335403
  atomic energy  EATOM  =      1787.65433595
  Solvation  Ediel_sol  =         0.00000000
  free energy    TOTEN  =       183.63194294 eV

  energy without entropy =      183.63482524  energy(sigma->0) =      183.63338409

[...]

 eigenvalue-minimisations  : 87042
 total energy-change (2. order) :-0.1980122E+03  (-0.1928181E+03)
 number of electron      24.0000000 magnetization
 augmentation part       24.0000000 magnetization

[...]

 eigenvalue-minimisations  :107750
 total energy-change (2. order) :-0.1005209E+02  (-0.9681121E+01)
 number of electron      24.0000000 magnetization
 augmentation part       24.0000000 magnetization

[...]

 Broyden mixing:
  rms(total) = 0.19531E+01    rms(broyden)= 0.19531E+01
  rms(prec ) = 0.26876E+01
  weight for this iteration     100.00

[...]

 eigenvalues of (default mixing * dielectric matrix)
  average eigenvalue GAMMA=   3.8657
  3.8657

[...]

 eigenvalue-minimisations  :100592
 total energy-change (2. order) : 0.5170943E+00  (-0.9133666E-01)
 number of electron      24.0000000 magnetization
 augmentation part        7.2547176 magnetization

[...]

 eigenvalue-minimisations  :100453
 total energy-change (2. order) : 0.2991497E-01  (-0.2710548E-01)
 number of electron      24.0000000 magnetization
 augmentation part        7.5053892 magnetization

[...]

 eigenvalue-minimisations  :102281
 total energy-change (2. order) :-0.4472960E-03  (-0.2868418E-03)
 number of electron      24.0000000 magnetization
 augmentation part        7.5082101 magnetization

[...]

 Broyden mixing:
  rms(total) = 0.12561E-01    rms(broyden)= 0.12561E-01
  rms(prec ) = 0.19325E-01
  weight for this iteration     100.00

 eigenvalues of (default mixing * dielectric matrix)
  average eigenvalue GAMMA=   3.3721
 10.1124  7.7063  6.6420  3.4944  0.6831  1.0861  1.0861  1.0543  1.0072  0.8491

[...]

--------------------------------------- Iteration      1(  16)  ---------------------------------------

 eigenvalue-minimisations  : 67064
 total energy-change (2. order) : 0.1225993E-04  (-0.2186470E-04)
 number of electron      24.0000000 magnetization
 augmentation part        7.5129332 magnetization

 Free energy of the ion-electron system (eV)
  alpha Z        PSCENC =       130.13584951
  Ewald energy   TEWEN  =     -1568.30883671
  -Hartree energ DENC   =      -355.98771120
  -exchange      EXHF   =         0.00000000
  -V(xc)+E(xc)   XCENC  =       -15.85881417
  PAW double counting   =      2641.96539831    -2583.50181358
  entropy T*S    EENTRO =        -0.00000008
  eigenvalues    EBANDS =       -59.58253849
  atomic energy  EATOM  =      1787.65433595
  Solvation  Ediel_sol  =         0.00000000
  free energy    TOTEN  =       -23.48413047 eV

  energy without entropy =      -23.48413038  energy(sigma->0) =      -23.48413043

 average (electrostatic) potential at core
  the test charge radii are     1.0103  1.2125  1.1712
  (the norm of the test charge is              1.0000)
       1 -41.0986       2 -33.1102       3 -84.7809

 E-fermi :   7.8356     XC(G=0): -11.8432     alpha+bet :-14.4519

 k-point     1 :       0.0000    0.0000    0.0000
  band No.  band energies     occupation
      1     -23.3761      2.00000
      2     -23.3761      2.00000
      3     -23.3761      2.00000
      4      -3.9171      2.00000
      5       5.0620      2.00000
      6       5.0620      2.00000
      7       5.0620      2.00000
      8       5.4696      2.00000
      9       5.4696      2.00000
     10       6.6206      2.00000
     11       6.6206      2.00000
     12       6.6206      2.00000
     13       9.4940      0.00000
     14       9.4940      0.00000
     15      10.5088      0.00000
     16      10.5088      0.00000
     17      10.5088      0.00000
     18      11.6310      0.00000

[...]

 k-point  2168 :      -0.2500    0.5000    0.2500
  band No.  band energies     occupation
      1     -23.4038      2.00000
      2     -23.3996      2.00000
      3     -23.3866      2.00000
      4      -2.1023      2.00000
      5       3.1487      2.00000
      6       3.2162      2.00000
      7       3.8377      2.00000
      8       6.0206      2.00000
      9       6.2803      2.00000
     10       6.4256      2.00000
     11       6.5489      2.00000
     12       7.1643      2.00000
     13       9.1241      0.00000
     14       9.1735      0.00000
     15       9.2025      0.00000
     16       9.5066      0.00000
     17       9.9802      0.00000
     18      14.6668      0.00000

 soft charge-density along one line, spin component           1
         0         1         2         3         4         5         6         7         8         9
 total charge-density along one line

------------------------ aborting loop because EDIFF is reached ----------------------------------------

 VOLUME and BASIS-vectors are now :
  energy-cutoff  :      520.00
  volume of cell :       51.68
      direct lattice vectors                 reciprocal lattice vectors
     0.000000000  2.956487637  2.956487637    -0.169119598  0.169119598  0.169119598
     2.956487637  0.000000000  2.956487637     0.169119598 -0.169119598  0.169119598
     2.956487637  2.956487637  0.000000000     0.169119598  0.169119598 -0.169119598

  length of vectors
     4.181104914  4.181104914  4.181104914     0.292923736  0.292923736  0.292923736

 FORCES acting on ions
    electron-ion (+dipol)            ewald-force                    non-local-force                 convergence-correction
   0.133E-06 0.133E-06 0.130E-06   -.103E-13 0.141E-14 0.132E-14   0.000E+00 -.694E-17 -.867E-18   -.506E-07 -.506E-07 -.506E-07
   -.252E-07 -.252E-07 -.284E-07   0.165E-13 0.413E-14 0.134E-13   -.208E-16 -.694E-17 -.208E-16   -.435E-07 -.435E-07 -.435E-07
   -.108E-06 -.108E-06 -.954E-07   -.721E-14 -.574E-14 -.173E-13   0.000E+00 0.000E+00 0.173E-17   -.244E-07 -.244E-07 -.244E-07
   0.201E-10 0.207E-10 0.606E-08   -.102E-14 -.198E-15 -.251E-14   -.208E-16 -.139E-16 -.199E-16   -.118E-06 -.118E-06 -.118E-06

 POSITION                                       TOTAL-FORCE (eV/Angst)
      4.43473      4.43473      4.43473         0.000000      0.000000      0.000000
      0.00000      0.00000      0.00000        -0.000000     -0.000000     -0.000000
      2.95649      2.95649      2.95649        -0.000000     -0.000000      0.000000
    total drift:                               -0.000000     -0.000000     -0.000000

  FREE ENERGIE OF THE ION-ELECTRON SYSTEM (eV)
  free  energy   TOTEN  =       -23.48413047 eV

  energy  without entropy=      -23.48413038  energy(sigma->0) =      -23.48413043